data/evidence/ss_sat/proofs/scaled_cadical_drat/horn_chain_128.cadical.drat
2 0
d -1 2 0
3 0
d -2 3 0
4 0
d -3 4 0
5 0
d -4 5 0
6 0
d -5 6 0
7 0
d -6 7 0
8 0
d -7 8 0
9 0
d -8 9 0
10 0
d -9 10 0
11 0
d -10 11 0
12 0
d -11 12 0
13 0
d -12 13 0
14 0
d -13 14 0
15 0
d -14 15 0
16 0
d -15 16 0
17 0
d -16 17 0
18 0
d -17 18 0
19 0
d -18 19 0
20 0
d -19 20 0
21 0
d -20 21 0
22 0
d -21 22 0
23 0
d -22 23 0
24 0
d -23 24 0
25 0
d -24 25 0
26 0
d -25 26 0
27 0
d -26 27 0
28 0
d -27 28 0
29 0
d -28 29 0
30 0
d -29 30 0
31 0
d -30 31 0
32 0
d -31 32 0
33 0
d -32 33 0
34 0
d -33 34 0
35 0
d -34 35 0
36 0
d -35 36 0
37 0
d -36 37 0
38 0
d -37 38 0
39 0
d -38 39 0
40 0
d -39 40 0
41 0
d -40 41 0
42 0
d -41 42 0
43 0
d -42 43 0
44 0
d -43 44 0
45 0
d -44 45 0
46 0
d -45 46 0
47 0
d -46 47 0
48 0
d -47 48 0
49 0
d -48 49 0
50 0
d -49 50 0
51 0
d -50 51 0
52 0
d -51 52 0
53 0
d -52 53 0
54 0
d -53 54 0
55 0
d -54 55 0
56 0
d -55 56 0
57 0
d -56 57 0
58 0
d -57 58 0
59 0
d -58 59 0
60 0
d -59 60 0
61 0
d -60 61 0
62 0
d -61 62 0
63 0
d -62 63 0
64 0
d -63 64 0
65 0
d -64 65 0
66 0
d -65 66 0
67 0
d -66 67 0
68 0
d -67 68 0
69 0
d -68 69 0
70 0
d -69 70 0
71 0
d -70 71 0
72 0
d -71 72 0
73 0
d -72 73 0
74 0
d -73 74 0
75 0
d -74 75 0
76 0
d -75 76 0
77 0
d -76 77 0
78 0
d -77 78 0
79 0
d -78 79 0
80 0
d -79 80 0
81 0
d -80 81 0
82 0
d -81 82 0
83 0
d -82 83 0
84 0
d -83 84 0
85 0
d -84 85 0
86 0
d -85 86 0
87 0
d -86 87 0
88 0
d -87 88 0
89 0
d -88 89 0
90 0
d -89 90 0
91 0
d -90 91 0
92 0
d -91 92 0
93 0
d -92 93 0
94 0
d -93 94 0
95 0
d -94 95 0
96 0
d -95 96 0
97 0
d -96 97 0
98 0
d -97 98 0
99 0
d -98 99 0
100 0
d -99 100 0
101 0
d -100 101 0
102 0
d -101 102 0
103 0
d -102 103 0
104 0
d -103 104 0
105 0
d -104 105 0
106 0
d -105 106 0
107 0
d -106 107 0
108 0
d -107 108 0
109 0
d -108 109 0
110 0
d -109 110 0
111 0
d -110 111 0
112 0
d -111 112 0
113 0
d -112 113 0
114 0
d -113 114 0
115 0
d -114 115 0
116 0
d -115 116 0
117 0
d -116 117 0
118 0
d -117 118 0
119 0
d -118 119 0
120 0
d -119 120 0
121 0
d -120 121 0
122 0
d -121 122 0
123 0
d -122 123 0
124 0
d -123 124 0
125 0
d -124 125 0
126 0
d -125 126 0
127 0
d -126 127 0
128 0
d -127 128 0
0
d -128 0
