data/evidence/ss_sat/proofs/scaled_cadical_lrat/horn_chain_128.cadical.lrat
130 2 0 1 2 0
130 d 2 0
131 3 0 130 3 0
131 d 3 0
132 4 0 131 4 0
132 d 4 0
133 5 0 132 5 0
133 d 5 0
134 6 0 133 6 0
134 d 6 0
135 7 0 134 7 0
135 d 7 0
136 8 0 135 8 0
136 d 8 0
137 9 0 136 9 0
137 d 9 0
138 10 0 137 10 0
138 d 10 0
139 11 0 138 11 0
139 d 11 0
140 12 0 139 12 0
140 d 12 0
141 13 0 140 13 0
141 d 13 0
142 14 0 141 14 0
142 d 14 0
143 15 0 142 15 0
143 d 15 0
144 16 0 143 16 0
144 d 16 0
145 17 0 144 17 0
145 d 17 0
146 18 0 145 18 0
146 d 18 0
147 19 0 146 19 0
147 d 19 0
148 20 0 147 20 0
148 d 20 0
149 21 0 148 21 0
149 d 21 0
150 22 0 149 22 0
150 d 22 0
151 23 0 150 23 0
151 d 23 0
152 24 0 151 24 0
152 d 24 0
153 25 0 152 25 0
153 d 25 0
154 26 0 153 26 0
154 d 26 0
155 27 0 154 27 0
155 d 27 0
156 28 0 155 28 0
156 d 28 0
157 29 0 156 29 0
157 d 29 0
158 30 0 157 30 0
158 d 30 0
159 31 0 158 31 0
159 d 31 0
160 32 0 159 32 0
160 d 32 0
161 33 0 160 33 0
161 d 33 0
162 34 0 161 34 0
162 d 34 0
163 35 0 162 35 0
163 d 35 0
164 36 0 163 36 0
164 d 36 0
165 37 0 164 37 0
165 d 37 0
166 38 0 165 38 0
166 d 38 0
167 39 0 166 39 0
167 d 39 0
168 40 0 167 40 0
168 d 40 0
169 41 0 168 41 0
169 d 41 0
170 42 0 169 42 0
170 d 42 0
171 43 0 170 43 0
171 d 43 0
172 44 0 171 44 0
172 d 44 0
173 45 0 172 45 0
173 d 45 0
174 46 0 173 46 0
174 d 46 0
175 47 0 174 47 0
175 d 47 0
176 48 0 175 48 0
176 d 48 0
177 49 0 176 49 0
177 d 49 0
178 50 0 177 50 0
178 d 50 0
179 51 0 178 51 0
179 d 51 0
180 52 0 179 52 0
180 d 52 0
181 53 0 180 53 0
181 d 53 0
182 54 0 181 54 0
182 d 54 0
183 55 0 182 55 0
183 d 55 0
184 56 0 183 56 0
184 d 56 0
185 57 0 184 57 0
185 d 57 0
186 58 0 185 58 0
186 d 58 0
187 59 0 186 59 0
187 d 59 0
188 60 0 187 60 0
188 d 60 0
189 61 0 188 61 0
189 d 61 0
190 62 0 189 62 0
190 d 62 0
191 63 0 190 63 0
191 d 63 0
192 64 0 191 64 0
192 d 64 0
193 65 0 192 65 0
193 d 65 0
194 66 0 193 66 0
194 d 66 0
195 67 0 194 67 0
195 d 67 0
196 68 0 195 68 0
196 d 68 0
197 69 0 196 69 0
197 d 69 0
198 70 0 197 70 0
198 d 70 0
199 71 0 198 71 0
199 d 71 0
200 72 0 199 72 0
200 d 72 0
201 73 0 200 73 0
201 d 73 0
202 74 0 201 74 0
202 d 74 0
203 75 0 202 75 0
203 d 75 0
204 76 0 203 76 0
204 d 76 0
205 77 0 204 77 0
205 d 77 0
206 78 0 205 78 0
206 d 78 0
207 79 0 206 79 0
207 d 79 0
208 80 0 207 80 0
208 d 80 0
209 81 0 208 81 0
209 d 81 0
210 82 0 209 82 0
210 d 82 0
211 83 0 210 83 0
211 d 83 0
212 84 0 211 84 0
212 d 84 0
213 85 0 212 85 0
213 d 85 0
214 86 0 213 86 0
214 d 86 0
215 87 0 214 87 0
215 d 87 0
216 88 0 215 88 0
216 d 88 0
217 89 0 216 89 0
217 d 89 0
218 90 0 217 90 0
218 d 90 0
219 91 0 218 91 0
219 d 91 0
220 92 0 219 92 0
220 d 92 0
221 93 0 220 93 0
221 d 93 0
222 94 0 221 94 0
222 d 94 0
223 95 0 222 95 0
223 d 95 0
224 96 0 223 96 0
224 d 96 0
225 97 0 224 97 0
225 d 97 0
226 98 0 225 98 0
226 d 98 0
227 99 0 226 99 0
227 d 99 0
228 100 0 227 100 0
228 d 100 0
229 101 0 228 101 0
229 d 101 0
230 102 0 229 102 0
230 d 102 0
231 103 0 230 103 0
231 d 103 0
232 104 0 231 104 0
232 d 104 0
233 105 0 232 105 0
233 d 105 0
234 106 0 233 106 0
234 d 106 0
235 107 0 234 107 0
235 d 107 0
236 108 0 235 108 0
236 d 108 0
237 109 0 236 109 0
237 d 109 0
238 110 0 237 110 0
238 d 110 0
239 111 0 238 111 0
239 d 111 0
240 112 0 239 112 0
240 d 112 0
241 113 0 240 113 0
241 d 113 0
242 114 0 241 114 0
242 d 114 0
243 115 0 242 115 0
243 d 115 0
244 116 0 243 116 0
244 d 116 0
245 117 0 244 117 0
245 d 117 0
246 118 0 245 118 0
246 d 118 0
247 119 0 246 119 0
247 d 119 0
248 120 0 247 120 0
248 d 120 0
249 121 0 248 121 0
249 d 121 0
250 122 0 249 122 0
250 d 122 0
251 123 0 250 123 0
251 d 123 0
252 124 0 251 124 0
252 d 124 0
253 125 0 252 125 0
253 d 125 0
254 126 0 253 126 0
254 d 126 0
255 127 0 254 127 0
255 d 127 0
256 128 0 255 128 0
256 d 128 0
257 0 256 129 0
